22 3
6 6 3
0 0 0 0 20 2 3 4 5 6 7 8 9 10 11 12 13 14 15 16 17 18 19 20 21
5 1 0 1 4 22 13 7 19
4 3 3 0 1 22
5 0 1 0 2 22 6
3 3 0 0 1 22
4 3 2 1 3 22 7 16
2 1 3 0 3 22 20 10
5 0 0 1 1 22
4 1 2 1 1 22
3 3 3 0 2 22 19
4 2 1 1 3 22 14 21
3 1 1 1 1 22
1 2 2 1 2 22 21
5 1 0 1 1 22
4 2 2 0 2 22 18
3 1 2 1 1 22
5 3 1 0 1 22
2 1 0 0 2 22 19
2 0 1 0 2 22 21
4 1 1 1 1 22
2 0 3 0 1 22
0 0 0 0 0
